NAME : in_house_9_4
TYPE : TSP
DIMENSION : 9
EDGE_WEIGHT_TYPE : EXPLICIT
EDGE_WEIGHT_FORMAT : UPPER_ROW
COMMENT : INVERSION_SHIFT=7
EDGE_WEIGHT_SECTION
16
72
60
71
79
68
36
58
29
76
41
2
61
67
25
65
41
12
75
31
6
26
16
66
80
46
59
53
62
70
76
5
65
48
68
56
